c :: WCTIME=3.88953
c :: command line :: ./optimal-finder cvc-plus_4.cnf -minimal
c :: version :: 160
c :: reference filename :: cvc-plus_4.cnf
c :: reference encoding :: 58
c i 2 6 12 20 3 7 13 21 5 11 19 27 0
c :: inputs :: 2 6 12 20 3 7 13 21 5 11 19 27 
c :: clause minimization :: 0
c :: assignments analyzed :: 265607
c :: reference encoding :: variables :: 26 :: clauses :: 58
c :: optimal encoding :: variables :: 12 :: clauses :: 336
c :: optimal minimal encoding :: 336
p cnf 27 336
5 3 -2 0
-2 -5 -3 0
2 3 -5 0
5 2 -3 0
6 3 -11 7 0
-7 3 11 6 0
11 -5 -6 7 0
-7 -5 -6 -11 0
-7 3 -6 -11 0
-7 -5 11 6 0
6 -5 -11 7 0
11 3 -6 7 0
6 2 -11 7 0
11 2 -6 7 0
-7 2 -6 -11 0
-7 2 11 6 0
-7 -19 -13 -6 12 0
-7 -12 -6 13 -19 0
13 -5 12 -19 6 0
-12 -5 19 13 6 0
-21 -12 19 27 -20 0
20 27 19 -12 21 0
19 2 -13 12 6 0
19 3 -13 12 6 0
19 7 -13 12 6 0
19 -5 -13 12 6 0
19 -11 -13 12 6 0
-21 -19 20 27 12 0
20 19 -13 27 21 0
-12 -5 -13 -19 6 0
-12 -7 -13 -6 19 0
-7 11 -6 5 -2 0
-7 11 -6 5 -3 0
-21 27 -20 -12 -13 0
-12 3 19 13 -11 0
13 3 12 -19 -11 0
-7 19 13 -6 12 0
11 19 13 -6 12 0
19 -5 -13 12 7 0
19 3 -13 12 7 0
13 2 12 -19 -11 0
13 6 12 -19 -11 0
13 7 12 -19 -11 0
13 -5 12 -19 -11 0
19 3 -13 12 -11 0
-12 3 -13 -19 -11 0
-12 -5 19 13 7 0
-12 3 19 13 7 0
27 -19 -20 21 13 0
-12 11 -13 -6 19 0
-7 -12 -13 11 19 0
-21 -19 20 27 13 0
-7 -12 13 11 -19 0
-21 12 -27 -20 -19 0
-21 13 -27 -20 -19 0
20 13 -27 21 12 0
-21 12 -27 -20 13 0
-12 2 -13 -19 -11 0
-12 -11 19 13 6 0
-12 -11 -13 -19 7 0
-12 -5 19 13 -11 0
-7 11 19 12 13 0
27 12 -20 21 13 0
-12 -5 -13 -19 7 0
-12 19 -27 -20 21 0
-12 -13 -27 -20 21 0
-12 7 19 13 -11 0
20 19 -13 -27 -21 0
-12 13 -6 11 -19 0
-12 7 19 13 6 0
11 -19 -13 -6 12 0
20 -12 19 -27 -21 0
-12 3 -13 -19 7 0
-21 27 19 -20 -13 0
27 -19 -20 21 12 0
13 -5 12 -19 7 0
20 27 -13 -12 21 0
20 -12 -13 -27 -21 0
19 2 -13 12 7 0
11 6 -2 5 7 0
11 6 5 -3 7 0
19 -13 -27 -20 21 0
-12 6 -13 -19 7 0
20 13 -27 21 -19 0
20 12 -27 21 -19 0
-12 2 19 13 6 0
19 2 -13 12 -11 0
-21 13 20 27 12 0
-12 -11 -13 -19 -5 0
13 3 12 -19 6 0
13 3 12 -19 7 0
-7 6 -2 -3 -11 0
-7 6 5 -2 -11 0
-12 -11 19 13 2 0
-12 7 19 13 2 0
-12 2 -13 -19 7 0
13 2 12 -19 6 0
-12 2 -13 -19 6 0
19 -11 -13 12 7 0
5 -2 -6 7 -11 0
5 -6 -3 -11 7 0
-12 6 -13 -19 3 0
-12 3 19 13 6 0
-7 11 -13 12 -19 0
13 6 12 -19 7 0
13 2 12 -19 7 0
-12 -11 -13 -19 6 0
19 -5 -13 12 -11 0
-21 -5 20 27 13 6 0
-21 2 -27 -20 12 7 0
-7 19 -6 -27 -20 21 0
-7 -13 -6 -27 -20 21 0
-7 -12 -6 -27 21 -20 0
27 -5 -20 21 13 6 0
-21 -5 20 27 -19 7 0
-7 27 19 -6 21 20 0
20 11 -13 -6 -27 -21 0
-21 -5 -27 -20 13 6 0
20 -5 -27 21 13 -11 0
-7 27 -6 -12 21 20 0
-7 20 -6 27 -13 21 0
-21 -5 20 27 13 -11 0
-21 11 -6 27 -20 -13 0
-21 -5 20 27 12 6 0
-21 -5 20 27 -19 6 0
20 -5 -27 21 13 6 0
-21 -7 27 -12 11 -20 0
-21 -7 11 27 -20 -13 0
-7 11 19 27 -21 -20 0
27 -5 -20 21 -19 7 0
27 -5 -20 21 -19 6 0
-21 -11 -27 -20 12 6 0
20 -11 -27 21 12 6 0
20 -11 -27 21 12 7 0
20 2 -27 21 12 -11 0
27 -5 -20 21 -19 -11 0
-21 -5 20 27 -19 -11 0
-21 -5 -27 -20 12 -11 0
20 -5 -27 21 12 -11 0
11 27 19 -6 21 20 0
11 -21 19 -6 27 -20 0
-7 -12 -27 11 21 -20 0
-7 11 -13 -27 21 -20 0
-7 11 19 -27 -20 21 0
27 3 -20 21 -19 6 0
-21 -12 -6 11 27 -20 0
-7 11 19 21 20 27 0
-21 7 20 27 13 6 0
-21 3 20 27 -19 7 0
-21 3 -27 -20 13 6 0
20 -5 -27 21 12 6 0
20 -5 -27 21 6 -19 0
-21 3 -27 -20 -19 -11 0
-7 20 27 -12 11 21 0
27 12 -20 21 -11 3 0
27 3 -20 21 13 -11 0
-21 -5 -27 -20 12 7 0
20 3 -27 21 -11 -19 0
-21 3 20 27 -11 13 0
-7 20 -13 11 27 21 0
-21 3 20 27 12 -11 0
-7 11 19 -27 -21 20 0
27 3 -20 21 -19 7 0
20 27 -6 -12 11 21 0
-7 20 -6 -12 -27 -21 0
-21 -12 -6 -7 27 -20 0
-21 -7 -6 27 -20 -13 0
-21 -7 19 -6 27 -20 0
-21 3 20 27 13 7 0
27 12 -20 21 -5 6 0
-21 -11 20 27 -19 6 0
-21 3 -27 -20 13 7 0
11 19 -6 -27 -20 21 0
20 2 -27 21 7 -19 0
20 3 -27 21 12 -11 0
-21 6 20 27 12 -11 0
-21 -11 20 27 13 6 0
20 11 -6 -27 -12 -21 0
-21 -11 20 27 13 7 0
20 -5 -27 21 -11 -19 0
27 13 -20 21 7 2 0
27 12 -20 21 7 2 0
27 -19 -20 21 7 2 0
27 -19 -20 21 -11 2 0
-21 -5 -27 -20 13 -11 0
-21 -5 -27 -20 -19 -11 0
-21 -5 20 27 12 -11 0
-21 -5 -27 -20 13 7 0
-21 3 -27 -20 -19 6 0
-21 -11 -27 -20 12 7 0
27 -11 -20 21 -19 6 0
27 -11 -20 21 12 7 0
27 13 -20 21 -11 7 0
27 7 -20 21 -19 -11 0
-21 -11 20 27 13 2 0
-21 7 20 27 12 -11 0
27 3 -20 21 13 7 0
27 12 -20 21 7 3 0
-21 2 -27 -20 12 -11 0
-21 2 -27 -20 -11 13 0
-21 2 -27 -20 -19 -11 0
-21 -11 20 27 -19 7 0
-21 2 20 27 -19 -11 0
-21 -5 20 27 13 7 0
-21 3 -27 -20 -19 7 0
20 12 -27 21 7 6 0
20 3 -27 21 13 -11 0
27 -5 -20 21 13 -11 0
-21 2 -27 -20 -19 6 0
27 7 -20 21 13 6 0
20 -11 -27 21 13 6 0
20 2 -27 21 13 6 0
20 3 -27 21 13 6 0
-21 -7 11 -27 -13 20 0
-7 20 -27 11 -12 -21 0
-21 3 -27 -20 -11 12 0
27 13 -20 21 -11 2 0
20 2 -27 21 13 -11 0
27 2 -20 21 12 -11 0
20 2 -27 21 13 7 0
-21 3 -27 -20 13 -11 0
27 12 -20 21 -11 6 0
20 6 -27 21 13 7 0
20 3 -27 21 13 7 0
27 13 -20 21 -11 6 0
20 -5 -27 21 13 7 0
11 20 19 -6 -27 -21 0
20 13 -27 21 -11 7 0
-21 -11 -27 -20 13 7 0
20 2 -27 21 -19 -11 0
20 2 -27 21 12 7 0
-21 -11 -27 -20 -19 6 0
20 -11 -27 21 -19 7 0
-21 -11 -27 -20 -19 7 0
20 3 -27 21 -19 6 0
-7 20 -6 -27 -13 -21 0
-21 7 -27 -20 -19 6 0
-21 3 20 27 -19 6 0
-21 3 20 27 12 7 0
27 12 -20 21 2 6 0
-21 2 -27 -20 12 6 0
-21 2 20 27 12 6 0
20 3 -27 21 12 6 0
20 -5 -27 21 12 7 0
-21 2 20 27 12 7 0
-21 3 -27 -20 12 6 0
20 6 -27 21 -19 7 0
20 2 -27 21 -19 6 0
-21 6 -27 -20 12 7 0
20 11 -13 -6 27 21 0
-21 -19 20 27 6 2 0
27 -5 -20 21 12 -11 0
-21 2 -27 -20 13 7 0
-21 6 20 27 -19 7 0
-21 6 20 27 12 7 0
-21 -19 20 27 7 2 0
-21 -11 20 27 12 2 0
-21 -19 20 27 -11 3 0
20 3 -27 21 12 7 0
20 3 -27 21 7 -19 0
20 6 -27 21 -19 -11 0
27 12 -20 21 7 -5 0
27 -5 -20 21 13 7 0
27 -19 -20 21 -11 3 0
-21 -5 -27 -20 12 6 0
-21 3 20 27 12 6 0
-21 2 20 27 13 7 0
-21 2 -27 -20 -19 7 0
-21 7 -27 -20 13 6 0
20 12 -27 21 6 2 0
-21 2 -27 -20 13 6 0
27 3 -20 21 13 6 0
-21 -11 -27 -20 13 6 0
11 -13 -6 -27 -20 21 0
-21 3 20 27 13 6 0
27 7 -20 21 -19 6 0
-21 -5 20 27 12 7 0
-21 2 20 27 13 6 0
27 3 -20 21 12 6 0
20 -5 -27 21 7 -19 0
-7 20 19 -6 -27 -21 0
-21 3 -27 -20 12 7 0
27 2 -20 21 13 6 0
27 -19 -20 21 2 6 0
27 7 -20 21 12 6 0
-12 11 -6 -27 21 -20 0
-21 -5 -27 -20 -19 6 0
-21 -19 -27 -20 7 -5 0
-12 -19 -6 5 -2 13 0
-7 -12 5 -19 -3 13 0
-7 19 5 13 -3 12 0
11 19 -2 -3 12 13 0
-12 19 -13 11 5 -3 0
11 5 -13 -2 12 -19 0
-12 19 -13 -6 5 -3 0
-12 19 -13 -7 5 -3 0
-7 5 -13 -3 12 -19 0
-12 11 -2 -3 -19 13 0
19 13 5 -6 -3 12 0
-2 -13 -6 -3 12 -19 0
-21 -12 -6 27 -20 -3 5 0
-7 19 -27 -20 21 5 -3 0
-7 27 19 21 20 -3 5 0
-21 11 19 27 -20 -2 -3 0
20 27 19 11 21 -3 -2 0
11 19 -27 -20 21 5 -2 0
20 27 -13 -6 21 -2 -3 0
-21 27 19 -6 -20 5 -2 0
-21 -7 20 -12 -27 -3 5 0
-21 20 -27 11 -13 -2 5 0
-7 27 19 -20 -21 5 -3 0
-7 20 -13 27 21 -3 5 0
-21 -7 27 -12 -20 -3 5 0
-21 27 -20 -12 11 5 -2 0
-12 -6 -27 -20 21 -3 5 0
20 11 19 -27 -21 5 -3 0
-21 -7 20 -27 -13 5 -3 0
-21 -7 27 -20 -13 5 -2 0
-21 20 -27 11 -12 5 -2 0
-7 20 19 -27 -21 -3 -2 0
-21 -12 -6 -27 20 5 -2 0
20 -21 -13 -6 -27 5 -2 0
-21 20 19 -6 -27 5 -2 0
-7 20 27 -12 21 -3 -2 0
20 27 -6 -12 21 -3 5 0
27 20 19 -6 21 -3 5 0
20 27 -13 11 21 -3 -2 0
-12 11 -27 -20 21 -2 -3 0
-21 11 -20 27 -3 -13 5 0
11 -13 -27 -20 21 5 -3 0
-21 27 -6 -20 -13 5 -2 0
-7 -13 -27 -20 21 5 -3 0
-7 -12 -27 21 -20 -3 -2 0
20 27 21 -12 11 -3 -2 0
19 -27 -6 -20 21 -2 -3 0
-6 -13 -27 -20 21 -3 -2 0
